\ENCODING=ISO-8859-1
\Problem name: IloCplex

Maximize
 obj: 30 a_0_0 + 52 a_1_0 + 23 a_2_0 + 38 a_3_0 + 83 a_4_0 + 116 a_5_0
      + 22 a_6_0 + 59 a_7_0 + 51 a_8_0 + 57 a_9_0 + 30 a_0_1 + 52 a_1_1
      + 23 a_2_1 + 38 a_3_1 + 83 a_4_1 + 116 a_5_1 + 22 a_6_1 + 59 a_7_1
      + 51 a_8_1 + 57 a_9_1 + 30 a_0_2 + 52 a_1_2 + 23 a_2_2 + 38 a_3_2
      + 83 a_4_2 + 116 a_5_2 + 22 a_6_2 + 59 a_7_2 + 51 a_8_2 + 57 a_9_2
      + 30 a_0_3 + 52 a_1_3 + 23 a_2_3 + 38 a_3_3 + 83 a_4_3 + 116 a_5_3
      + 22 a_6_3 + 59 a_7_3 + 51 a_8_3 + 57 a_9_3 + 30 a_0_4 + 52 a_1_4
      + 23 a_2_4 + 38 a_3_4 + 83 a_4_4 + 116 a_5_4 + 22 a_6_4 + 59 a_7_4
      + 51 a_8_4 + 57 a_9_4 + 30 a_0_5 + 52 a_1_5 + 23 a_2_5 + 38 a_3_5
      + 83 a_4_5 + 116 a_5_5 + 22 a_6_5 + 59 a_7_5 + 51 a_8_5 + 57 a_9_5
Subject To
 c1:   2 a_0_0 + 2 a_5_0 + 4 a_6_0 <= 6411
 c2:   2 a_0_0 + 3 a_1_0 <= 75
 c3:   3 a_2_0 + 2 a_3_0 <= 75
 c4:   4 a_0_0 + 3 a_3_0 <= 105
 c5:   4 a_4_0 + 2 a_5_0 <= 2187
 c6:   4 a_1_0 + 4 a_5_0 <= 4314
 c7:   3 a_6_0 + 5 a_8_0 + 5 a_9_0 <= 13825
 c8:   a_1_0 + 3 a_7_0 <= 3205
 c9:   3 a_5_0 + a_8_0 + 4 a_9_0 <= 8508
 c10:  2 a_1_0 + 3 a_9_0 <= 3220
 c11:  2 a_0_1 + 2 a_5_1 + 4 a_6_1 <= 5359
 c12:  2 a_0_1 + 3 a_1_1 <= 70
 c13:  3 a_2_1 + 2 a_3_1 <= 70
 c14:  4 a_0_1 + 3 a_3_1 <= 98
 c15:  4 a_4_1 + 2 a_5_1 <= 1833
 c16:  4 a_1_1 + 4 a_5_1 <= 3610
 c17:  3 a_6_1 + 5 a_8_1 + 5 a_9_1 <= 11550
 c18:  a_1_1 + 3 a_7_1 <= 2679
 c19:  3 a_5_1 + a_8_1 + 4 a_9_1 <= 7108
 c20:  2 a_1_1 + 3 a_9_1 <= 2693
 c21:  2 a_0_2 + 2 a_5_2 + 4 a_6_2 <= 4307
 c22:  2 a_0_2 + 3 a_1_2 <= 65
 c23:  3 a_2_2 + 2 a_3_2 <= 65
 c24:  4 a_0_2 + 3 a_3_2 <= 91
 c25:  4 a_4_2 + 2 a_5_2 <= 1479
 c26:  4 a_1_2 + 4 a_5_2 <= 2906
 c27:  3 a_6_2 + 5 a_8_2 + 5 a_9_2 <= 9275
 c28:  a_1_2 + 3 a_7_2 <= 2153
 c29:  3 a_5_2 + a_8_2 + 4 a_9_2 <= 5708
 c30:  2 a_1_2 + 3 a_9_2 <= 2166
 c31:  2 a_0_3 + 2 a_5_3 + 4 a_6_3 <= 3255
 c32:  2 a_0_3 + 3 a_1_3 <= 60
 c33:  3 a_2_3 + 2 a_3_3 <= 60
 c34:  4 a_0_3 + 3 a_3_3 <= 84
 c35:  4 a_4_3 + 2 a_5_3 <= 1125
 c36:  4 a_1_3 + 4 a_5_3 <= 2202
 c37:  3 a_6_3 + 5 a_8_3 + 5 a_9_3 <= 7000
 c38:  a_1_3 + 3 a_7_3 <= 1627
 c39:  3 a_5_3 + a_8_3 + 4 a_9_3 <= 4308
 c40:  2 a_1_3 + 3 a_9_3 <= 1639
 c41:  2 a_0_4 + 2 a_5_4 + 4 a_6_4 <= 2203
 c42:  2 a_0_4 + 3 a_1_4 <= 55
 c43:  3 a_2_4 + 2 a_3_4 <= 55
 c44:  4 a_0_4 + 3 a_3_4 <= 77
 c45:  4 a_4_4 + 2 a_5_4 <= 771
 c46:  4 a_1_4 + 4 a_5_4 <= 1498
 c47:  3 a_6_4 + 5 a_8_4 + 5 a_9_4 <= 4725
 c48:  a_1_4 + 3 a_7_4 <= 1101
 c49:  3 a_5_4 + a_8_4 + 4 a_9_4 <= 2908
 c50:  2 a_1_4 + 3 a_9_4 <= 1112
 c51:  2 a_0_5 + 2 a_5_5 + 4 a_6_5 <= 1151
 c52:  2 a_0_5 + 3 a_1_5 <= 50
 c53:  3 a_2_5 + 2 a_3_5 <= 50
 c54:  4 a_0_5 + 3 a_3_5 <= 70
 c55:  4 a_4_5 + 2 a_5_5 <= 417
 c56:  4 a_1_5 + 4 a_5_5 <= 794
 c57:  3 a_6_5 + 5 a_8_5 + 5 a_9_5 <= 2450
 c58:  a_1_5 + 3 a_7_5 <= 575
 c59:  3 a_5_5 + a_8_5 + 4 a_9_5 <= 1508
 c60:  2 a_1_5 + 3 a_9_5 <= 585
 c61:  - a_0_0 + a_0_1 <= 1
 c62:  a_0_0 - a_0_1 <= 2
 c63:  - a_1_0 + a_1_1 <= 1
 c64:  a_1_0 - a_1_1 <= 2
 c65:  - a_2_0 + a_2_1 <= 1
 c66:  a_2_0 - a_2_1 <= 2
 c67:  - a_3_0 + a_3_1 <= 1
 c68:  a_3_0 - a_3_1 <= 2
 c69:  - a_4_0 + a_4_1 <= 1
 c70:  a_4_0 - a_4_1 <= 2
 c71:  - a_5_0 + a_5_1 <= 175
 c72:  a_5_0 - a_5_1 <= 2
 c73:  - a_6_0 + a_6_1 <= 175
 c74:  a_6_0 - a_6_1 <= 2
 c75:  - a_7_0 + a_7_1 <= 175
 c76:  a_7_0 - a_7_1 <= 2
 c77:  - a_8_0 + a_8_1 <= 175
 c78:  a_8_0 - a_8_1 <= 2
 c79:  - a_9_0 + a_9_1 <= 175
 c80:  a_9_0 - a_9_1 <= 2
 c81:  - a_0_1 + a_0_2 <= 1
 c82:  a_0_1 - a_0_2 <= 2
 c83:  - a_1_1 + a_1_2 <= 1
 c84:  a_1_1 - a_1_2 <= 2
 c85:  - a_2_1 + a_2_2 <= 1
 c86:  a_2_1 - a_2_2 <= 2
 c87:  - a_3_1 + a_3_2 <= 1
 c88:  a_3_1 - a_3_2 <= 2
 c89:  - a_4_1 + a_4_2 <= 1
 c90:  a_4_1 - a_4_2 <= 2
 c91:  - a_5_1 + a_5_2 <= 175
 c92:  a_5_1 - a_5_2 <= 2
 c93:  - a_6_1 + a_6_2 <= 175
 c94:  a_6_1 - a_6_2 <= 2
 c95:  - a_7_1 + a_7_2 <= 175
 c96:  a_7_1 - a_7_2 <= 2
 c97:  - a_8_1 + a_8_2 <= 175
 c98:  a_8_1 - a_8_2 <= 2
 c99:  - a_9_1 + a_9_2 <= 175
 c100: a_9_1 - a_9_2 <= 2
 c101: - a_0_2 + a_0_3 <= 1
 c102: a_0_2 - a_0_3 <= 2
 c103: - a_1_2 + a_1_3 <= 1
 c104: a_1_2 - a_1_3 <= 2
 c105: - a_2_2 + a_2_3 <= 1
 c106: a_2_2 - a_2_3 <= 2
 c107: - a_3_2 + a_3_3 <= 1
 c108: a_3_2 - a_3_3 <= 2
 c109: - a_4_2 + a_4_3 <= 1
 c110: a_4_2 - a_4_3 <= 2
 c111: - a_5_2 + a_5_3 <= 175
 c112: a_5_2 - a_5_3 <= 2
 c113: - a_6_2 + a_6_3 <= 175
 c114: a_6_2 - a_6_3 <= 2
 c115: - a_7_2 + a_7_3 <= 175
 c116: a_7_2 - a_7_3 <= 2
 c117: - a_8_2 + a_8_3 <= 175
 c118: a_8_2 - a_8_3 <= 2
 c119: - a_9_2 + a_9_3 <= 175
 c120: a_9_2 - a_9_3 <= 2
 c121: - a_0_3 + a_0_4 <= 1
 c122: a_0_3 - a_0_4 <= 2
 c123: - a_1_3 + a_1_4 <= 1
 c124: a_1_3 - a_1_4 <= 2
 c125: - a_2_3 + a_2_4 <= 1
 c126: a_2_3 - a_2_4 <= 2
 c127: - a_3_3 + a_3_4 <= 1
 c128: a_3_3 - a_3_4 <= 2
 c129: - a_4_3 + a_4_4 <= 1
 c130: a_4_3 - a_4_4 <= 2
 c131: - a_5_3 + a_5_4 <= 175
 c132: a_5_3 - a_5_4 <= 2
 c133: - a_6_3 + a_6_4 <= 175
 c134: a_6_3 - a_6_4 <= 2
 c135: - a_7_3 + a_7_4 <= 175
 c136: a_7_3 - a_7_4 <= 2
 c137: - a_8_3 + a_8_4 <= 175
 c138: a_8_3 - a_8_4 <= 2
 c139: - a_9_3 + a_9_4 <= 175
 c140: a_9_3 - a_9_4 <= 2
 c141: - a_0_4 + a_0_5 <= 1
 c142: a_0_4 - a_0_5 <= 2
 c143: - a_1_4 + a_1_5 <= 1
 c144: a_1_4 - a_1_5 <= 2
 c145: - a_2_4 + a_2_5 <= 1
 c146: a_2_4 - a_2_5 <= 2
 c147: - a_3_4 + a_3_5 <= 1
 c148: a_3_4 - a_3_5 <= 2
 c149: - a_4_4 + a_4_5 <= 1
 c150: a_4_4 - a_4_5 <= 2
 c151: - a_5_4 + a_5_5 <= 175
 c152: a_5_4 - a_5_5 <= 2
 c153: - a_6_4 + a_6_5 <= 175
 c154: a_6_4 - a_6_5 <= 2
 c155: - a_7_4 + a_7_5 <= 175
 c156: a_7_4 - a_7_5 <= 2
 c157: - a_8_4 + a_8_5 <= 175
 c158: a_8_4 - a_8_5 <= 2
 c159: - a_9_4 + a_9_5 <= 175
 c160: a_9_4 - a_9_5 <= 2
 c161: - a_0_5 <= 1
 c162: a_0_5 <= 2
 c163: - a_1_5 <= 1
 c164: a_1_5 <= 2
 c165: - a_2_5 <= 1
 c166: a_2_5 <= 2
 c167: - a_3_5 <= 1
 c168: a_3_5 <= 2
 c169: - a_4_5 <= 1
 c170: a_4_5 <= 2
 c171: - a_5_5 <= 175
 c172: a_5_5 <= 2
 c173: - a_6_5 <= 175
 c174: a_6_5 <= 2
 c175: - a_7_5 <= 175
 c176: a_7_5 <= 2
 c177: - a_8_5 <= 175
 c178: a_8_5 <= 2
 c179: - a_9_5 <= 175
 c180: a_9_5 <= 2
Bounds
      a_0_0 Free
      a_1_0 Free
      a_2_0 Free
      a_3_0 Free
      a_4_0 Free
      a_5_0 Free
      a_6_0 Free
      a_7_0 Free
      a_8_0 Free
      a_9_0 Free
      a_0_1 Free
      a_1_1 Free
      a_2_1 Free
      a_3_1 Free
      a_4_1 Free
      a_5_1 Free
      a_6_1 Free
      a_7_1 Free
      a_8_1 Free
      a_9_1 Free
      a_0_2 Free
      a_1_2 Free
      a_2_2 Free
      a_3_2 Free
      a_4_2 Free
      a_5_2 Free
      a_6_2 Free
      a_7_2 Free
      a_8_2 Free
      a_9_2 Free
      a_0_3 Free
      a_1_3 Free
      a_2_3 Free
      a_3_3 Free
      a_4_3 Free
      a_5_3 Free
      a_6_3 Free
      a_7_3 Free
      a_8_3 Free
      a_9_3 Free
      a_0_4 Free
      a_1_4 Free
      a_2_4 Free
      a_3_4 Free
      a_4_4 Free
      a_5_4 Free
      a_6_4 Free
      a_7_4 Free
      a_8_4 Free
      a_9_4 Free
      a_0_5 Free
      a_1_5 Free
      a_2_5 Free
      a_3_5 Free
      a_4_5 Free
      a_5_5 Free
      a_6_5 Free
      a_7_5 Free
      a_8_5 Free
      a_9_5 Free
End
